(declare-fun var0 () String)
(assert (str.in.re var0 (re.++ (re.+ (re.* (str.to.re ":"))) (re.++ (re.* (re.union (str.to.re "...") (str.to.re "//"))) (re.++ (re.union (re.* (str.to.re ",")) (re.* (str.to.re "---"))) (re.++ (re.union (re.+ (str.to.re ")")) (re.union (str.to.re "**") (str.to.re "+++"))) (re.++ (re.+ (re.* (str.to.re "(("))) (re.++ (re.union (re.* (str.to.re "&&&")) (re.* (str.to.re "''"))) (re.++ (re.union (re.+ (str.to.re "$$$")) (re.+ (str.to.re "%"))) (re.++ (re.* (re.* (str.to.re "#"))) (re.++ (re.* (re.union (str.to.re "!!") (str.to.re """"""))) (re.++ (re.union (re.+ (str.to.re "YY")) (re.* (str.to.re "ZZ"))) (re.++ (re.union (re.union (str.to.re "VV") (str.to.re "W")) (re.* (str.to.re "X"))) (re.++ (re.union (re.* (str.to.re "S")) (re.union (str.to.re "T") (str.to.re "UUU"))) (re.++ (re.* (re.union (str.to.re "Q") (str.to.re "R"))) (re.++ (re.* (re.union (str.to.re "OOO") (str.to.re "P"))) (re.++ (re.+ (re.* (str.to.re "N"))) (re.++ (re.+ (re.+ (str.to.re "M"))) (re.++ (re.union (re.union (str.to.re "JJJ") (str.to.re "K")) (re.* (str.to.re "LL"))) (re.++ (re.+ (re.* (str.to.re "II"))) (re.++ (re.union (re.+ (str.to.re "GG")) (re.* (str.to.re "HHH"))) (re.++ (re.* (re.+ (str.to.re "FFF"))) (re.++ (re.+ (re.* (str.to.re "EE"))) (re.++ (re.* (re.+ (str.to.re "D"))) (re.++ (re.* (re.union (str.to.re "B") (str.to.re "C"))) (re.++ (re.* (re.union (str.to.re "zzz") (str.to.re "AA"))) (re.++ (re.+ (re.union (str.to.re "x") (str.to.re "yyy"))) (re.++ (re.+ (re.union (str.to.re "vvv") (str.to.re "www"))) (re.++ (re.* (re.* (str.to.re "uuu"))) (re.++ (re.union (re.* (str.to.re "s")) (re.+ (str.to.re "tt"))) (re.++ (re.union (re.union (str.to.re "ppp") (str.to.re "q")) (re.+ (str.to.re "rr"))) (re.++ (re.union (re.+ (str.to.re "nnn")) (re.+ (str.to.re "oo"))) (re.++ (re.+ (re.+ (str.to.re "mm"))) (re.++ (re.* (re.* (str.to.re "ll"))) (re.++ (re.* (re.* (str.to.re "kkk"))) (re.++ (re.* (re.+ (str.to.re "jjj"))) (re.++ (re.* (re.+ (str.to.re "i"))) (re.++ (re.union (re.* (str.to.re "f")) (re.union (str.to.re "gg") (str.to.re "h"))) (re.++ (re.* (re.* (str.to.re "ee"))) (re.++ (re.+ (re.+ (str.to.re "d"))) (re.++ (re.union (re.+ (str.to.re "b")) (re.+ (str.to.re "ccc"))) (re.++ (re.+ (re.union (str.to.re "9") (str.to.re "a"))) (re.++ (re.* (re.union (str.to.re "77") (str.to.re "88"))) (re.++ (re.union (re.* (str.to.re "44")) (re.union (str.to.re "55") (str.to.re "6"))) (re.++ (re.union (re.union (str.to.re "1") (str.to.re "22")) (re.+ (str.to.re "3"))) (re.++ (re.union (re.+ (str.to.re "~")) (re.+ (str.to.re "0"))) (re.++ (re.+ (re.* (str.to.re "}}"))) (re.++ (re.* (re.* (str.to.re "||"))) (re.++ (re.* (re.+ (str.to.re "{{"))) (re.++ (re.union (re.+ (str.to.re "___")) (re.* (str.to.re "```"))) (re.++ (re.union (re.union (str.to.re "[") (str.to.re "\\\\\\")) (re.union (str.to.re "]]") (str.to.re "^^^"))) (re.++ (re.+ (re.union (str.to.re "??") (str.to.re "@@"))) (re.++ (re.union (re.+ (str.to.re "<<<")) (re.union (str.to.re "==") (str.to.re ">"))) (re.++ (re.union (re.+ (str.to.re ":")) (re.+ (str.to.re ";;"))) (re.++ (re.union (re.* (str.to.re "...")) (re.+ (str.to.re "//"))) (re.++ (re.union (re.+ (str.to.re ",")) (re.+ (str.to.re "---"))) (re.++ (re.+ (re.union (str.to.re "***") (str.to.re "+++"))) (re.++ (re.+ (re.union (str.to.re "(((") (str.to.re ")"))) (re.++ (re.union (re.+ (str.to.re "&&")) (re.+ (str.to.re "''"))) (re.++ (re.+ (re.union (str.to.re "$$$") (str.to.re "%"))) (re.++ (re.union (re.union (str.to.re "!!!") (str.to.re """""")) (re.+ (str.to.re "#"))) (re.++ (re.+ (re.* (str.to.re "ZZZ"))) (re.++ (re.union (re.+ (str.to.re "WWW")) (re.union (str.to.re "XXX") (str.to.re "Y"))) (re.++ (re.union (re.union (str.to.re "T") (str.to.re "UU")) (re.* (str.to.re "VV"))) (re.++ (re.+ (re.+ (str.to.re "SSS"))) (re.++ (re.* (re.* (str.to.re "RR"))) (re.++ (re.union (re.union (str.to.re "OO") (str.to.re "PPP")) (re.* (str.to.re "Q"))) (re.++ (re.* (re.union (str.to.re "MMM") (str.to.re "NNN"))) (re.++ (re.+ (re.union (str.to.re "KKK") (str.to.re "L"))) (re.++ (re.* (re.+ (str.to.re "JJ"))) (re.++ (re.union (re.union (str.to.re "F") (str.to.re "GG")) (re.union (str.to.re "HHH") (str.to.re "III"))) (re.++ (re.+ (re.* (str.to.re "EEE"))) (re.++ (re.union (re.+ (str.to.re "B")) (re.union (str.to.re "CCC") (str.to.re "DD"))) (re.++ (re.union (re.union (str.to.re "yyy") (str.to.re "zz")) (re.+ (str.to.re "AAA"))) (re.++ (re.+ (re.+ (str.to.re "x"))) (re.++ (re.+ (re.+ (str.to.re "w"))) (re.++ (re.+ (re.+ (str.to.re "vvv"))) (re.++ (re.+ (re.+ (str.to.re "u"))) (re.++ (re.+ (re.* (str.to.re "ttt"))) (re.++ (re.union (re.+ (str.to.re "rrr")) (re.+ (str.to.re "s"))) (re.++ (re.* (re.* (str.to.re "qqq"))) (re.++ (re.* (re.+ (str.to.re "ppp"))) (re.++ (re.union (re.+ (str.to.re "mmm")) (re.union (str.to.re "nnn") (str.to.re "o"))) (re.++ (re.* (re.union (str.to.re "kkk") (str.to.re "l"))) (re.++ (re.union (re.+ (str.to.re "h")) (re.union (str.to.re "i") (str.to.re "j"))) (re.++ (re.union (re.+ (str.to.re "e")) (re.union (str.to.re "ff") (str.to.re "g"))) (re.++ (re.union (re.* (str.to.re "cc")) (re.+ (str.to.re "dd"))) (re.++ (re.union (re.* (str.to.re "aaa")) (re.+ (str.to.re "bbb"))) (re.++ (re.+ (re.* (str.to.re "999"))) (re.++ (re.* (re.* (str.to.re "88"))) (re.++ (re.* (re.union (str.to.re "6") (str.to.re "777"))) (re.++ (re.+ (re.+ (str.to.re "5"))) (re.++ (re.union (re.union (str.to.re "2") (str.to.re "3")) (re.+ (str.to.re "4"))) (re.++ (re.union (re.+ (str.to.re "0")) (re.+ (str.to.re "111"))) (re.++ (re.+ (re.union (str.to.re "}") (str.to.re "~~"))) (re.++ (re.union (re.+ (str.to.re "{")) (re.+ (str.to.re "|||"))) (re.++ (re.* (re.union (str.to.re "__") (str.to.re "```"))) (re.++ (re.+ (re.+ (str.to.re "^"))) (re.++ (re.+ (re.* (str.to.re "]]]"))) (re.++ (re.* (re.union (str.to.re "[[[") (str.to.re "\\"))) (re.++ (re.union (re.* (str.to.re "??")) (re.+ (str.to.re "@@@"))) (re.++ (re.* (re.union (str.to.re "=") (str.to.re ">"))) (re.++ (re.* (re.union (str.to.re ";;") (str.to.re "<<"))) (re.++ (re.+ (re.* (str.to.re ":::"))) (re.++ (re.* (re.union (str.to.re "...") (str.to.re "//"))) (re.++ (re.+ (re.union (str.to.re ",,,") (str.to.re "--"))) (re.++ (re.union (re.+ (str.to.re ")")) (re.union (str.to.re "***") (str.to.re "+++"))) (re.++ (re.+ (re.* (str.to.re "(("))) (re.++ (re.union (re.* (str.to.re "&&")) (re.+ (str.to.re "'"))) (re.++ (re.union (re.* (str.to.re "$")) (re.* (str.to.re "%%%"))) (re.++ (re.union (re.+ (str.to.re """")) (re.+ (str.to.re "#"))) (re.++ (re.* (re.* (str.to.re "!!!"))) (re.++ (re.+ (re.* (str.to.re "ZZ"))) (re.++ (re.+ (re.+ (str.to.re "YYY"))) (re.++ (re.* (re.+ (str.to.re "X"))) (re.++ (re.+ (re.+ (str.to.re "WWW"))) (re.++ (re.+ (re.* (str.to.re "VV"))) (re.++ (re.union (re.+ (str.to.re "TT")) (re.+ (str.to.re "UUU"))) (re.++ (re.+ (re.union (str.to.re "RRR") (str.to.re "SS"))) (re.++ (re.+ (re.+ (str.to.re "QQ"))) (re.++ (re.* (re.* (str.to.re "PPP"))) (re.++ (re.+ (re.+ (str.to.re "O"))) (re.++ (re.union (re.union (str.to.re "K") (str.to.re "LL")) (re.union (str.to.re "M") (str.to.re "NN"))) (re.++ (re.* (re.union (str.to.re "II") (str.to.re "JJJ"))) (re.++ (re.union (re.+ (str.to.re "F")) (re.union (str.to.re "G") (str.to.re "HHH"))) (re.++ (re.* (re.union (str.to.re "DDD") (str.to.re "EE"))) (re.++ (re.union (re.* (str.to.re "B")) (re.+ (str.to.re "CCC"))) (re.++ (re.+ (re.+ (str.to.re "AA"))) (re.++ (re.+ (re.+ (str.to.re "z"))) (re.++ (re.union (re.+ (str.to.re "xx")) (re.* (str.to.re "yy"))) (re.++ (re.* (re.union (str.to.re "vv") (str.to.re "ww"))) (re.++ (re.union (re.union (str.to.re "rr") (str.to.re "sss")) (re.union (str.to.re "tt") (str.to.re "u"))) (re.++ (re.union (re.union (str.to.re "n") (str.to.re "o")) (re.union (str.to.re "ppp") (str.to.re "qqq"))) (re.++ (re.+ (re.* (str.to.re "mmm"))) (re.++ (re.union (re.+ (str.to.re "j")) (re.union (str.to.re "k") (str.to.re "l"))) (re.++ (re.* (re.+ (str.to.re "i"))) (re.++ (re.union (re.union (str.to.re "e") (str.to.re "f")) (re.union (str.to.re "g") (str.to.re "hhh"))) (re.++ (re.+ (re.union (str.to.re "cc") (str.to.re "ddd"))) (re.++ (re.* (re.union (str.to.re "aa") (str.to.re "bbb"))) (re.++ (re.+ (re.union (str.to.re "888") (str.to.re "99"))) (re.++ (re.* (re.+ (str.to.re "777"))) (re.++ (re.* (re.* (str.to.re "666"))) (re.++ (re.* (re.* (str.to.re "555"))) (re.++ (re.union (re.+ (str.to.re "222")) (re.union (str.to.re "3") (str.to.re "44"))) (re.++ (re.* (re.* (str.to.re "11"))) (re.++ (re.union (re.+ (str.to.re "~~~")) (re.+ (str.to.re "0"))) (re.++ (re.union (re.+ (str.to.re "{")) (re.union (str.to.re "|") (str.to.re "}"))) (re.++ (re.union (re.+ (str.to.re "_")) (re.+ (str.to.re "`"))) (re.++ (re.* (re.+ (str.to.re "^"))) (re.++ (re.* (re.union (str.to.re "\\\\\\") (str.to.re "]"))) (re.++ (re.* (re.+ (str.to.re "[[["))) (re.++ (re.* (re.+ (str.to.re "@@@"))) (re.++ (re.+ (re.union (str.to.re ">>>") (str.to.re "?"))) (re.++ (re.+ (re.* (str.to.re "=="))) (re.++ (re.* (re.+ (str.to.re "<<<"))) (re.++ (re.+ (re.+ (str.to.re ";;;"))) (re.++ (re.+ (re.* (str.to.re ":"))) (re.++ (re.union (re.* (str.to.re "..")) (re.+ (str.to.re "///"))) (re.++ (re.union (re.* (str.to.re ",,")) (re.* (str.to.re "--"))) (re.++ (re.* (re.union (str.to.re "**") (str.to.re "++"))) (re.++ (re.* (re.union (str.to.re "((") (str.to.re "))"))) (re.++ (re.* (re.+ (str.to.re "''"))) (re.++ (re.* (re.union (str.to.re "%%%") (str.to.re "&&"))) (re.++ (re.union (re.union (str.to.re """""") (str.to.re "###")) (re.* (str.to.re "$$"))) (re.++ (re.union (re.* (str.to.re "Z")) (re.+ (str.to.re "!!!"))) (re.++ (re.+ (re.* (str.to.re "YYY"))) (re.++ (re.+ (re.union (str.to.re "W") (str.to.re "XXX"))) (re.++ (re.union (re.union (str.to.re "TT") (str.to.re "UUU")) (re.+ (str.to.re "VV"))) (re.++ (re.union (re.+ (str.to.re "QQQ")) (re.union (str.to.re "RR") (str.to.re "SSS"))) (re.++ (re.+ (re.+ (str.to.re "PP"))) (re.++ (re.union (re.union (str.to.re "MMM") (str.to.re "N")) (re.+ (str.to.re "OO"))) (re.++ (re.* (re.union (str.to.re "KK") (str.to.re "LLL"))) (re.++ (re.union (re.union (str.to.re "GGG") (str.to.re "HHH")) (re.union (str.to.re "II") (str.to.re "J"))) (re.++ (re.* (re.+ (str.to.re "FF"))) (re.++ (re.* (re.+ (str.to.re "EE"))) (re.++ (re.+ (re.* (str.to.re "DD"))) (re.++ (re.* (re.union (str.to.re "BB") (str.to.re "C"))) (re.++ (re.+ (re.union (str.to.re "z") (str.to.re "AAA"))) (re.++ (re.* (re.* (str.to.re "yyy"))) (re.++ (re.+ (re.union (str.to.re "w") (str.to.re "xx"))) (re.++ (re.+ (re.* (str.to.re "vvv"))) (re.++ (re.+ (re.* (str.to.re "uuu"))) (re.++ (re.union (re.union (str.to.re "rrr") (str.to.re "sss")) (re.* (str.to.re "t"))) (re.++ (re.+ (re.* (str.to.re "qqq"))) (re.++ (re.* (re.union (str.to.re "o") (str.to.re "pp"))) (re.++ (re.+ (re.union (str.to.re "mm") (str.to.re "n"))) (re.++ (re.+ (re.+ (str.to.re "lll"))) (re.++ (re.+ (re.union (str.to.re "jj") (str.to.re "kkk"))) (re.++ (re.union (re.union (str.to.re "gg") (str.to.re "hhh")) (re.* (str.to.re "i"))) (re.++ (re.* (re.* (str.to.re "fff"))) (re.++ (re.+ (re.+ (str.to.re "e"))) (re.++ (re.* (re.+ (str.to.re "ddd"))) (re.++ (re.* (re.union (str.to.re "bbb") (str.to.re "cc"))) (re.++ (re.union (re.union (str.to.re "7") (str.to.re "8")) (re.union (str.to.re "999") (str.to.re "a"))) (re.++ (re.+ (re.* (str.to.re "66"))) (re.++ (re.+ (re.+ (str.to.re "5"))) (re.++ (re.+ (re.+ (str.to.re "4"))) (re.++ (re.+ (re.union (str.to.re "22") (str.to.re "33"))) (re.union (re.+ (str.to.re "00")) (re.+ (str.to.re "1")))))))))))))))))))))))))))))))))))))))))))))))))))))))))))))))))))))))))))))))))))))))))))))))))))))))))))))))))))))))))))))))))))))))))))))))))))))))))))))))))))))))))))))))))))))))))))))))))))))))))
(check-sat)